qbf_easy_train/easy_4124_SAT.qdimacs
p cnf 30 79
a 22 6 15 0
e 1 2 3 4 5 7 8 9 10 11 12 13 14 16 17 18 19 20 21 23 24 25 26 27 28 29 30 0
-1 2 -3 0
1 -2 -3 0
-1 -2 3 0
1 2 3 0
5 -4 0
5 2 0
4 -2 -5 0
-3 5 -6 0
3 -5 -6 0
-3 -5 6 0
3 5 6 0
8 -4 0
8 -7 0
4 7 -8 0
9 8 0
9 -4 0
-8 4 -9 0
-10 9 0
-10 9 0
-9 10 0
-11 -9 0
-11 10 0
9 -10 11 0
-12 -6 0
-12 11 0
6 -11 12 0
13 14 -15 0
-13 -14 -15 0
13 -14 15 0
-13 14 15 0
16 -12 0
16 15 0
12 -15 -16 0
-18 17 0
-18 -10 0
-17 10 18 0
19 10 0
19 2 0
-10 -2 -19 0
20 -18 0
20 -19 0
18 19 -20 0
21 -16 0
21 -20 0
16 20 -21 0
-9 7 -22 0
9 -7 -22 0
-9 -7 22 0
9 7 22 0
17 -8 -23 0
-17 8 -23 0
17 8 23 0
-17 -8 23 0
25 24 0
25 -24 0
23 25 -26 0
-23 -25 -26 0
23 -25 26 0
-23 25 26 0
27 22 0
27 26 0
-22 -26 -27 0
-28 -1 0
-28 -2 0
1 2 28 0
29 -27 0
29 -28 0
27 28 -29 0
-30 21 0
-30 29 0
-21 -29 30 0
9 -3 -29 -23 24 0
29 24 -15 0
-26 -1 6 4 -25 -16 22 -18 0
8 -2 13 0
3 -11 10 21 0
14 -29 30 0
-24 -17 21 0
30 0
