sat_easy_train/easy_4124_SAT.dimacs
p cnf 97 314
-2 1 -3 0
2 -1 -3 0
-2 -1 3 0
2 1 3 0
-4 -5 -6 0
4 5 -6 0
-4 5 6 0
4 -5 6 0
3 -6 -7 0
-3 6 -7 0
3 6 7 0
-3 -6 7 0
-8 -1 0
-8 -7 0
1 7 8 0
9 7 0
9 6 0
-7 -6 -9 0
10 -8 0
10 -9 0
8 9 -10 0
11 6 0
11 1 0
-6 -1 -11 0
-14 12 0
-14 13 0
-12 -13 14 0
-15 8 0
-15 -14 0
-8 14 15 0
11 15 -16 0
-11 -15 -16 0
11 -15 16 0
-11 15 16 0
-17 -10 0
-17 16 0
10 -16 17 0
-20 19 0
-20 -18 0
-19 18 20 0
-21 -18 0
-21 -20 0
18 20 21 0
-21 22 -23 0
21 -22 -23 0
-21 -22 23 0
21 22 23 0
17 23 -24 0
-17 -23 -24 0
17 -23 24 0
-17 23 24 0
-27 -25 0
-27 -26 0
25 26 27 0
-28 -23 0
-28 21 0
23 -21 28 0
-29 28 0
-29 7 0
-28 -7 29 0
27 29 -30 0
-27 -29 -30 0
27 -29 30 0
-27 29 30 0
31 21 0
31 30 0
-21 -30 -31 0
-31 -25 -32 0
31 25 -32 0
-31 25 32 0
31 -25 32 0
24 32 -33 0
-24 -32 -33 0
24 -32 33 0
-24 32 33 0
34 29 0
34 6 0
-29 -6 -34 0
-5 -34 -35 0
5 34 -35 0
-5 34 35 0
5 -34 35 0
-27 13 -36 0
27 -13 -36 0
-27 -13 36 0
27 13 36 0
-37 34 0
-37 -22 0
-34 22 37 0
36 -37 -38 0
-36 37 -38 0
36 37 38 0
-36 -37 38 0
41 39 0
41 40 0
-39 -40 -41 0
42 -19 0
42 41 0
19 -41 -42 0
38 42 -43 0
-38 -42 -43 0
38 -42 43 0
-38 42 43 0
44 35 0
44 -43 0
-35 43 -44 0
-45 6 0
-45 21 0
-6 -21 45 0
-46 44 0
-46 -45 0
-44 45 46 0
37 -47 -48 0
-37 47 -48 0
37 47 48 0
-37 -47 48 0
49 -48 0
49 48 0
-50 -19 0
-50 21 0
19 -21 50 0
51 -12 0
51 -4 0
12 4 -51 0
52 -50 0
52 -51 0
50 51 -52 0
-53 -49 0
-53 52 0
49 -52 53 0
55 54 0
55 22 0
-54 -22 -55 0
56 54 0
56 -55 0
-54 55 -56 0
57 -56 0
57 -5 0
56 5 -57 0
58 -23 0
58 15 0
23 -15 -58 0
59 -11 0
59 -12 0
11 12 -59 0
-60 -6 0
-60 27 0
6 -27 60 0
-59 -60 -61 0
59 60 -61 0
-59 60 61 0
59 -60 61 0
58 -61 -62 0
-58 61 -62 0
58 61 62 0
-58 -61 62 0
-27 -63 -64 0
27 63 -64 0
-27 63 64 0
27 -63 64 0
65 -62 0
65 -64 0
62 64 -65 0
66 57 0
66 65 0
-57 -65 -66 0
-67 53 0
-67 66 0
-53 -66 67 0
-46 -67 -68 0
46 67 -68 0
-46 67 68 0
46 -67 68 0
-69 -33 0
-69 68 0
33 -68 69 0
-70 34 0
-70 -36 0
-34 36 70 0
69 -70 -71 0
-69 70 -71 0
69 70 71 0
-69 -70 71 0
72 26 0
72 48 0
-26 -48 -72 0
12 -19 -73 0
-12 19 -73 0
12 19 73 0
-12 -19 73 0
74 73 0
74 6 0
-73 -6 -74 0
72 74 -75 0
-72 -74 -75 0
72 -74 75 0
-72 74 75 0
-76 -34 0
-76 -30 0
34 30 76 0
-76 -54 -77 0
76 54 -77 0
-76 54 77 0
76 -54 77 0
78 6 0
78 -77 0
-6 77 -78 0
79 -78 0
79 76 0
78 -76 -79 0
12 19 -80 0
-12 -19 -80 0
12 -19 80 0
-12 19 80 0
80 -60 -81 0
-80 60 -81 0
80 60 81 0
-80 -60 81 0
-82 79 0
-82 -81 0
-79 81 82 0
83 75 0
83 -82 0
-75 82 -83 0
-84 5 0
-84 14 0
-5 -14 84 0
-85 -84 0
-85 25 0
84 -25 85 0
-86 -60 0
-86 85 0
60 -85 86 0
-27 -86 -87 0
27 86 -87 0
-27 86 87 0
27 -86 87 0
-78 87 -88 0
78 -87 -88 0
-78 -87 88 0
78 87 88 0
89 -25 0
89 36 0
25 -36 -89 0
-89 12 -90 0
89 -12 -90 0
-89 -12 90 0
89 12 90 0
91 -60 0
91 -87 0
60 87 -91 0
-92 -90 0
-92 -91 0
90 91 92 0
93 88 0
93 92 0
-88 -92 -93 0
83 93 -94 0
-83 -93 -94 0
83 -93 94 0
-83 93 94 0
95 5 0
95 -11 0
-5 11 -95 0
94 -95 -96 0
-94 95 -96 0
94 95 96 0
-94 -95 96 0
-71 -96 -97 0
71 96 -97 0
-71 96 97 0
71 -96 97 0
-11 82 94 -83 -97 8 0
77 61 -2 -46 -35 0
11 -43 -85 77 51 -63 0
29 -79 89 -14 -54 -76 0
84 75 45 63 0
94 -47 0
-52 -77 -18 96 45 61 0
20 -16 11 3 0
89 52 92 -56 -48 -86 0
96 -66 45 -39 -82 68 0
-37 -73 74 -9 -6 0
70 40 6 3 -37 0
74 67 -8 30 0
-91 -41 21 78 0
85 56 0
-10 48 31 -22 0
3 -12 -93 -52 0
2 -89 62 0
73 -24 50 0
49 -77 -84 -76 -51 64 0
61 -33 -91 -77 0
-2 79 0
-81 49 0
88 -53 7 0
-12 44 -72 -58 0
-29 -53 60 0
-96 -64 -6 21 -5 0
-16 -96 35 0
79 60 50 63 0
-78 -74 34 -79 0
-19 56 15 0
67 -6 -52 -2 -96 0
-77 92 81 -6 14 0
24 75 73 -71 0
-87 74 -97 0
38 -15 29 -92 0
-89 66 -68 31 26 23 0
-88 75 93 68 0
-61 60 0
-86 -52 -2 61 -18 0
-35 -54 -46 10 12 8 0
97 0
